NAME: random-98-18190
TYPE: TSP
COMMENT: size=98 seed=18190
DIMENSION: 198
EDGE_WEIGHT_TYPE: EUC_2D
NODE_COORD_SECTION
+0 330 686
-0 330 686
+1 623 326
-1 175 664
+2 38 416
-2 775 494
+3 75 664
-3 646 725
+4 554 930
-4 422 175
+5 252 786
-5 399 2
+6 423 422
-6 26 402
+7 191 812
-7 404 932
+8 502 369
-8 217 680
+9 981 237
-9 188 675
+10 759 496
-10 855 999
+11 553 216
-11 937 766
+12 740 944
-12 716 287
+13 245 360
-13 775 984
+14 257 24
-14 614 223
+15 795 21
-15 333 19
+16 481 775
-16 503 970
+17 687 643
-17 391 801
+18 770 36
-18 858 804
+19 918 423
-19 153 640
+20 971 700
-20 174 809
+21 159 253
-21 973 595
+22 230 159
-22 793 933
+23 502 188
-23 336 504
+24 775 401
-24 214 628
+25 59 813
-25 562 99
+26 18 514
-26 665 583
+27 373 411
-27 144 573
+28 261 556
-28 848 168
+29 798 567
-29 920 596
+30 615 712
-30 922 375
+31 314 503
-31 650 839
+32 510 708
-32 282 930
+33 682 609
-33 731 346
+34 820 379
-34 530 683
+35 202 324
-35 168 812
+36 798 655
-36 987 85
+37 508 898
-37 0 766
+38 126 59
-38 131 808
+39 222 38
-39 321 211
+40 694 238
-40 63 341
+41 368 413
-41 21 159
+42 142 899
-42 198 337
+43 598 570
-43 436 785
+44 359 531
-44 855 476
+45 171 361
-45 722 701
+46 39 145
-46 673 299
+47 167 427
-47 276 579
+48 763 313
-48 794 484
+49 645 767
-49 833 233
+50 156 919
-50 888 320
+51 332 336
-51 865 291
+52 103 873
-52 40 162
+53 162 622
-53 63 91
+54 965 33
-54 913 241
+55 598 717
-55 781 745
+56 611 639
-56 245 208
+57 677 759
-57 430 117
+58 442 403
-58 873 498
+59 90 739
-59 949 543
+60 202 744
-60 362 356
+61 596 371
-61 509 802
+62 514 373
-62 890 515
+63 171 620
-63 855 404
+64 712 677
-64 639 202
+65 545 372
-65 517 758
+66 151 573
-66 77 452
+67 352 966
-67 837 705
+68 123 281
-68 430 28
+69 363 834
-69 952 96
+70 824 645
-70 877 835
+71 727 620
-71 266 776
+72 816 411
-72 361 267
+73 480 751
-73 827 674
+74 693 565
-74 930 408
+75 462 895
-75 534 806
+76 178 353
-76 837 844
+77 377 628
-77 913 480
+78 305 775
-78 408 351
+79 983 263
-79 104 51
+80 539 214
-80 296 334
+81 533 522
-81 426 471
+82 209 181
-82 834 972
+83 874 944
-83 588 62
+84 500 719
-84 775 84
+85 507 600
-85 294 49
+86 160 525
-86 140 593
+87 347 205
-87 788 250
+88 747 48
-88 492 875
+89 547 812
-89 619 527
+90 269 43
-90 641 505
+91 312 65
-91 627 795
+92 314 473
-92 142 940
+93 759 703
-93 192 437
+94 15 226
-94 242 649
+95 225 432
-95 82 136
+96 389 71
-96 848 479
+97 998 943
-97 696 466
+98 684 35
-98 361 603
PRECEDENCE_SECTION
+0 -0
+1 -1
+2 -2
+3 -3
+4 -4
+5 -5
+6 -6
+7 -7
+8 -8
+9 -9
+10 -10
+11 -11
+12 -12
+13 -13
+14 -14
+15 -15
+16 -16
+17 -17
+18 -18
+19 -19
+20 -20
+21 -21
+22 -22
+23 -23
+24 -24
+25 -25
+26 -26
+27 -27
+28 -28
+29 -29
+30 -30
+31 -31
+32 -32
+33 -33
+34 -34
+35 -35
+36 -36
+37 -37
+38 -38
+39 -39
+40 -40
+41 -41
+42 -42
+43 -43
+44 -44
+45 -45
+46 -46
+47 -47
+48 -48
+49 -49
+50 -50
+51 -51
+52 -52
+53 -53
+54 -54
+55 -55
+56 -56
+57 -57
+58 -58
+59 -59
+60 -60
+61 -61
+62 -62
+63 -63
+64 -64
+65 -65
+66 -66
+67 -67
+68 -68
+69 -69
+70 -70
+71 -71
+72 -72
+73 -73
+74 -74
+75 -75
+76 -76
+77 -77
+78 -78
+79 -79
+80 -80
+81 -81
+82 -82
+83 -83
+84 -84
+85 -85
+86 -86
+87 -87
+88 -88
+89 -89
+90 -90
+91 -91
+92 -92
+93 -93
+94 -94
+95 -95
+96 -96
+97 -97
+98 -98
EOF
